c Read 224 clauses.  84 variables
c Breaking ties randomly with seed 1
c Placed 224 terms into 42 buckets.
c Bucket 2 Reduced to term with 7 nodes
c Bucket 4 Reduced to term with 7 nodes
c Bucket 6 Reduced to term with 7 nodes
c Bucket 8 Reduced to term with 9 nodes
c Bucket 10 Reduced to term with 11 nodes
c Bucket 12 Reduced to term with 7 nodes
c Bucket 14 Reduced to term with 7 nodes
c Bucket 16 Reduced to term with 13 nodes
c Bucket 18 Reduced to term with 9 nodes
c Bucket 20 Reduced to term with 13 nodes
c Bucket 22 Reduced to term with 11 nodes
c Bucket 24 Reduced to term with 17 nodes
c Bucket 26 Reduced to term with 15 nodes
c Bucket 28 Reduced to term with 7 nodes
c Bucket 30 Reduced to term with 7 nodes
c Bucket 32 Reduced to term with 19 nodes
c Bucket 34 Reduced to term with 9 nodes
c Bucket 36 Reduced to term with 9 nodes
c Bucket 38 Reduced to term with 19 nodes
c Bucket 40 Reduced to term with 29 nodes
c Bucket 42 Reduced to term with 7 nodes
c Bucket 44 Reduced to term with 19 nodes
c Bucket 46 Reduced to term with 35 nodes
c Bucket 50 Reduced to term with 41 nodes
c Bucket 56 Reduced to term with 11 nodes
s UNSATISFIABLE

c Cache statistics
c ----------------
c Unique Access:  3810
c Unique Chain:   21
c Unique Hit:     651
c Unique Miss:    3054
c => Hit rate =   0.18
c Operator Hits:  2781
c Operator Miss:  4376
c => Hit rate =   0.39
c Swap count =    0

c BDD statistics
c ----------------
c Total BDD nodes produced: 3054
c Input variables: 84
c Input clauses: 224
c Total clauses: 17830
c Unused+non-BDD clause IDs: 1039 (5.8%)
c Maximum live clauses: 14407
c Deleted clauses: 17606
c Final live clauses: 224
c Total variables: 3136
c Elapsed seconds: 0.014
-rw-r--r--  1 bryant  staff  653910 Mar 10 23:07 chew-30-123456.lrat
c parsed a formula with 84 variables and 224 clauses
c VERIFIED
c allocated 1024 87178 840
c Added clauses = 17830.  Deleted clauses = 3423.  Max live clauses = 14407
c verification time = 0.01 secs
